
;this file is automatically generated: Mon Oct 04 22:33:09 IST 2021

;declarations generated

(declare-fun oclExcludes ( Int Int) Bool)
(declare-fun obj_773cd7a3_b089_46fc_b8f1_371b94e7beba ( Int) Int)
(declare-fun Cardinality ( Int) Int)
(declare-fun type_aab7c544_344c_410a_97fc_5045e817bfc8_Class1 ( Int) Bool)
(declare-fun type_aab7c544_344c_410a_97fc_5045e817bfc8_Class0 ( Int) Bool)
(declare-fun type_aab7c544_344c_410a_97fc_5045e817bfc8_Class5 ( Int) Bool)
(declare-fun type_aab7c544_344c_410a_97fc_5045e817bfc8_Class4 ( Int) Bool)
(declare-fun type_aab7c544_344c_410a_97fc_5045e817bfc8_Class3 ( Int) Bool)
(declare-fun type_aab7c544_344c_410a_97fc_5045e817bfc8_Class2 ( Int) Bool)
(declare-fun type_aab7c544_344c_410a_97fc_5045e817bfc8_Class9 ( Int) Bool)
(declare-fun type_aab7c544_344c_410a_97fc_5045e817bfc8_Class8 ( Int) Bool)
(declare-fun type_aab7c544_344c_410a_97fc_5045e817bfc8_Class7 ( Int) Bool)
(declare-fun type_aab7c544_344c_410a_97fc_5045e817bfc8_Class6 ( Int) Bool)
(declare-fun type_aab7c544_344c_410a_97fc_5045e817bfc8_Class32 ( Int) Bool)
(declare-fun type_aab7c544_344c_410a_97fc_5045e817bfc8_Class31 ( Int) Bool)
(declare-fun type_aab7c544_344c_410a_97fc_5045e817bfc8_Class34 ( Int) Bool)
(declare-fun type_aab7c544_344c_410a_97fc_5045e817bfc8_Class33 ( Int) Bool)
(declare-fun type_aab7c544_344c_410a_97fc_5045e817bfc8_Class30 ( Int) Bool)
(declare-fun type_aab7c544_344c_410a_97fc_5045e817bfc8_Class39 ( Int) Bool)
(declare-fun type_aab7c544_344c_410a_97fc_5045e817bfc8_Class36 ( Int) Bool)
(declare-fun type_aab7c544_344c_410a_97fc_5045e817bfc8_Class35 ( Int) Bool)
(declare-fun type_aab7c544_344c_410a_97fc_5045e817bfc8_Class38 ( Int) Bool)
(declare-fun type_aab7c544_344c_410a_97fc_5045e817bfc8_Class37 ( Int) Bool)
(declare-fun type_aab7c544_344c_410a_97fc_5045e817bfc8_Class43 ( Int) Bool)
(declare-fun type_aab7c544_344c_410a_97fc_5045e817bfc8_Class42 ( Int) Bool)
(declare-fun type_aab7c544_344c_410a_97fc_5045e817bfc8_Class45 ( Int) Bool)
(declare-fun type_aab7c544_344c_410a_97fc_5045e817bfc8_Class44 ( Int) Bool)
(declare-fun type_aab7c544_344c_410a_97fc_5045e817bfc8_Class41 ( Int) Bool)
(declare-fun type_aab7c544_344c_410a_97fc_5045e817bfc8_Class40 ( Int) Bool)
(declare-fun type_aab7c544_344c_410a_97fc_5045e817bfc8_Class47 ( Int) Bool)
(declare-fun type_aab7c544_344c_410a_97fc_5045e817bfc8_Class46 ( Int) Bool)
(declare-fun type_aab7c544_344c_410a_97fc_5045e817bfc8_Class49 ( Int) Bool)
(declare-fun type_aab7c544_344c_410a_97fc_5045e817bfc8_Class48 ( Int) Bool)
(declare-fun type_aab7c544_344c_410a_97fc_5045e817bfc8_Class10 ( Int) Bool)
(declare-fun type_aab7c544_344c_410a_97fc_5045e817bfc8_Class12 ( Int) Bool)
(declare-fun type_aab7c544_344c_410a_97fc_5045e817bfc8_Class11 ( Int) Bool)
(declare-fun type_aab7c544_344c_410a_97fc_5045e817bfc8_Class18 ( Int) Bool)
(declare-fun type_aab7c544_344c_410a_97fc_5045e817bfc8_Class17 ( Int) Bool)
(declare-fun type_aab7c544_344c_410a_97fc_5045e817bfc8_Class19 ( Int) Bool)
(declare-fun type_aab7c544_344c_410a_97fc_5045e817bfc8_Class14 ( Int) Bool)
(declare-fun type_aab7c544_344c_410a_97fc_5045e817bfc8_Class13 ( Int) Bool)
(declare-fun type_aab7c544_344c_410a_97fc_5045e817bfc8_Class16 ( Int) Bool)
(declare-fun type_aab7c544_344c_410a_97fc_5045e817bfc8_Class15 ( Int) Bool)
(declare-fun type_aab7c544_344c_410a_97fc_5045e817bfc8_Class21 ( Int) Bool)
(declare-fun type_aab7c544_344c_410a_97fc_5045e817bfc8_Class20 ( Int) Bool)
(declare-fun type_aab7c544_344c_410a_97fc_5045e817bfc8_Class23 ( Int) Bool)
(declare-fun type_aab7c544_344c_410a_97fc_5045e817bfc8_Class22 ( Int) Bool)
(declare-fun type_aab7c544_344c_410a_97fc_5045e817bfc8_Class29 ( Int) Bool)
(declare-fun type_aab7c544_344c_410a_97fc_5045e817bfc8_Class28 ( Int) Bool)
(declare-fun type_aab7c544_344c_410a_97fc_5045e817bfc8_Class25 ( Int) Bool)
(declare-fun type_aab7c544_344c_410a_97fc_5045e817bfc8_Class24 ( Int) Bool)
(declare-fun type_aab7c544_344c_410a_97fc_5045e817bfc8_Class27 ( Int) Bool)
(declare-fun type_aab7c544_344c_410a_97fc_5045e817bfc8_Class26 ( Int) Bool)
(declare-fun oclSelect ( Int Bool) Int)
(declare-fun class22_Class22IntAttr2 ( Int) Int)
(declare-fun class22_Class22IntAttr3 ( Int) Int)
(declare-fun type_aab7c544_344c_410a_97fc_5045e817bfc8_Class54 ( Int) Bool)
(declare-fun type_aab7c544_344c_410a_97fc_5045e817bfc8_Class53 ( Int) Bool)
(declare-fun type_aab7c544_344c_410a_97fc_5045e817bfc8_Class55 ( Int) Bool)
(declare-fun type_aab7c544_344c_410a_97fc_5045e817bfc8_Class50 ( Int) Bool)
(declare-fun type_aab7c544_344c_410a_97fc_5045e817bfc8_Class52 ( Int) Bool)
(declare-fun type_aab7c544_344c_410a_97fc_5045e817bfc8_Class51 ( Int) Bool)
(declare-fun Enum0 ( Int) Int)
(declare-fun Enum1 ( Int) Int)
(declare-fun Enum2 ( Int) Int)
(declare-fun container_ ( Int) Int)
(declare-fun oclIncludes ( Int Int) Bool)
(declare-fun ObjAt ( Int Int) Int)

;formula(s) generated
(assert (! (forall ((c2_1 Int)(c2_2 Int)) (=> (and (and ( type_aab7c544_344c_410a_97fc_5045e817bfc8_Class22 c2_1 )  ( type_aab7c544_344c_410a_97fc_5045e817bfc8_Class39 c2_1 ) ) (and ( type_aab7c544_344c_410a_97fc_5045e817bfc8_Class22 c2_2 )  ( type_aab7c544_344c_410a_97fc_5045e817bfc8_Class39 c2_2 ) )) (>= ( class22_Class22IntAttr2 ( obj_773cd7a3_b089_46fc_b8f1_371b94e7beba c2_1 )  )  ( class22_Class22IntAttr3 ( obj_773cd7a3_b089_46fc_b8f1_371b94e7beba c2_2 )  ) ))):named l0))
(assert (! (exists ((o Int)) ( type_aab7c544_344c_410a_97fc_5045e817bfc8_Class0 ( obj_773cd7a3_b089_46fc_b8f1_371b94e7beba o )  ) ):named c0))
(assert (! (exists ((o Int)) (and (and (and (and (and ( type_aab7c544_344c_410a_97fc_5045e817bfc8_Class1 ( obj_773cd7a3_b089_46fc_b8f1_371b94e7beba o )  )  ( type_aab7c544_344c_410a_97fc_5045e817bfc8_Class45 ( obj_773cd7a3_b089_46fc_b8f1_371b94e7beba o )  ) ) ( type_aab7c544_344c_410a_97fc_5045e817bfc8_Class12 ( obj_773cd7a3_b089_46fc_b8f1_371b94e7beba o )  ) ) ( type_aab7c544_344c_410a_97fc_5045e817bfc8_Class33 ( obj_773cd7a3_b089_46fc_b8f1_371b94e7beba o )  ) ) ( type_aab7c544_344c_410a_97fc_5045e817bfc8_Class22 ( obj_773cd7a3_b089_46fc_b8f1_371b94e7beba o )  ) ) ( type_aab7c544_344c_410a_97fc_5045e817bfc8_Class39 ( obj_773cd7a3_b089_46fc_b8f1_371b94e7beba o )  ) )):named c1))
(assert (! (exists ((o Int)) (and (and (and (and (and (and (and (and (and ( type_aab7c544_344c_410a_97fc_5045e817bfc8_Class10 ( obj_773cd7a3_b089_46fc_b8f1_371b94e7beba o )  )  ( type_aab7c544_344c_410a_97fc_5045e817bfc8_Class45 ( obj_773cd7a3_b089_46fc_b8f1_371b94e7beba o )  ) ) ( type_aab7c544_344c_410a_97fc_5045e817bfc8_Class12 ( obj_773cd7a3_b089_46fc_b8f1_371b94e7beba o )  ) ) ( type_aab7c544_344c_410a_97fc_5045e817bfc8_Class55 ( obj_773cd7a3_b089_46fc_b8f1_371b94e7beba o )  ) ) ( type_aab7c544_344c_410a_97fc_5045e817bfc8_Class33 ( obj_773cd7a3_b089_46fc_b8f1_371b94e7beba o )  ) ) ( type_aab7c544_344c_410a_97fc_5045e817bfc8_Class22 ( obj_773cd7a3_b089_46fc_b8f1_371b94e7beba o )  ) ) ( type_aab7c544_344c_410a_97fc_5045e817bfc8_Class29 ( obj_773cd7a3_b089_46fc_b8f1_371b94e7beba o )  ) ) ( type_aab7c544_344c_410a_97fc_5045e817bfc8_Class39 ( obj_773cd7a3_b089_46fc_b8f1_371b94e7beba o )  ) ) ( type_aab7c544_344c_410a_97fc_5045e817bfc8_Class50 ( obj_773cd7a3_b089_46fc_b8f1_371b94e7beba o )  ) ) ( type_aab7c544_344c_410a_97fc_5045e817bfc8_Class41 ( obj_773cd7a3_b089_46fc_b8f1_371b94e7beba o )  ) )):named c2))
(assert (! (exists ((o Int)) ( type_aab7c544_344c_410a_97fc_5045e817bfc8_Class11 ( obj_773cd7a3_b089_46fc_b8f1_371b94e7beba o )  ) ):named c3))
(assert (! (exists ((o Int)) (and (and (and ( type_aab7c544_344c_410a_97fc_5045e817bfc8_Class12 ( obj_773cd7a3_b089_46fc_b8f1_371b94e7beba o )  )  ( type_aab7c544_344c_410a_97fc_5045e817bfc8_Class33 ( obj_773cd7a3_b089_46fc_b8f1_371b94e7beba o )  ) ) ( type_aab7c544_344c_410a_97fc_5045e817bfc8_Class22 ( obj_773cd7a3_b089_46fc_b8f1_371b94e7beba o )  ) ) ( type_aab7c544_344c_410a_97fc_5045e817bfc8_Class39 ( obj_773cd7a3_b089_46fc_b8f1_371b94e7beba o )  ) )):named c4))
(assert (! (exists ((o Int)) (and (and (and (and (and (and (and (and (and ( type_aab7c544_344c_410a_97fc_5045e817bfc8_Class13 ( obj_773cd7a3_b089_46fc_b8f1_371b94e7beba o )  )  ( type_aab7c544_344c_410a_97fc_5045e817bfc8_Class45 ( obj_773cd7a3_b089_46fc_b8f1_371b94e7beba o )  ) ) ( type_aab7c544_344c_410a_97fc_5045e817bfc8_Class12 ( obj_773cd7a3_b089_46fc_b8f1_371b94e7beba o )  ) ) ( type_aab7c544_344c_410a_97fc_5045e817bfc8_Class55 ( obj_773cd7a3_b089_46fc_b8f1_371b94e7beba o )  ) ) ( type_aab7c544_344c_410a_97fc_5045e817bfc8_Class33 ( obj_773cd7a3_b089_46fc_b8f1_371b94e7beba o )  ) ) ( type_aab7c544_344c_410a_97fc_5045e817bfc8_Class22 ( obj_773cd7a3_b089_46fc_b8f1_371b94e7beba o )  ) ) ( type_aab7c544_344c_410a_97fc_5045e817bfc8_Class29 ( obj_773cd7a3_b089_46fc_b8f1_371b94e7beba o )  ) ) ( type_aab7c544_344c_410a_97fc_5045e817bfc8_Class39 ( obj_773cd7a3_b089_46fc_b8f1_371b94e7beba o )  ) ) ( type_aab7c544_344c_410a_97fc_5045e817bfc8_Class50 ( obj_773cd7a3_b089_46fc_b8f1_371b94e7beba o )  ) ) ( type_aab7c544_344c_410a_97fc_5045e817bfc8_Class41 ( obj_773cd7a3_b089_46fc_b8f1_371b94e7beba o )  ) )):named c5))
(assert (! (exists ((o Int)) (and (and (and (and (and (and (and (and (and ( type_aab7c544_344c_410a_97fc_5045e817bfc8_Class14 ( obj_773cd7a3_b089_46fc_b8f1_371b94e7beba o )  )  ( type_aab7c544_344c_410a_97fc_5045e817bfc8_Class45 ( obj_773cd7a3_b089_46fc_b8f1_371b94e7beba o )  ) ) ( type_aab7c544_344c_410a_97fc_5045e817bfc8_Class12 ( obj_773cd7a3_b089_46fc_b8f1_371b94e7beba o )  ) ) ( type_aab7c544_344c_410a_97fc_5045e817bfc8_Class55 ( obj_773cd7a3_b089_46fc_b8f1_371b94e7beba o )  ) ) ( type_aab7c544_344c_410a_97fc_5045e817bfc8_Class33 ( obj_773cd7a3_b089_46fc_b8f1_371b94e7beba o )  ) ) ( type_aab7c544_344c_410a_97fc_5045e817bfc8_Class22 ( obj_773cd7a3_b089_46fc_b8f1_371b94e7beba o )  ) ) ( type_aab7c544_344c_410a_97fc_5045e817bfc8_Class29 ( obj_773cd7a3_b089_46fc_b8f1_371b94e7beba o )  ) ) ( type_aab7c544_344c_410a_97fc_5045e817bfc8_Class39 ( obj_773cd7a3_b089_46fc_b8f1_371b94e7beba o )  ) ) ( type_aab7c544_344c_410a_97fc_5045e817bfc8_Class50 ( obj_773cd7a3_b089_46fc_b8f1_371b94e7beba o )  ) ) ( type_aab7c544_344c_410a_97fc_5045e817bfc8_Class41 ( obj_773cd7a3_b089_46fc_b8f1_371b94e7beba o )  ) )):named c6))
(assert (! (exists ((o Int)) ( type_aab7c544_344c_410a_97fc_5045e817bfc8_Class15 ( obj_773cd7a3_b089_46fc_b8f1_371b94e7beba o )  ) ):named c7))
(assert (! (exists ((o Int)) (and (and (and (and (and ( type_aab7c544_344c_410a_97fc_5045e817bfc8_Class16 ( obj_773cd7a3_b089_46fc_b8f1_371b94e7beba o )  )  ( type_aab7c544_344c_410a_97fc_5045e817bfc8_Class45 ( obj_773cd7a3_b089_46fc_b8f1_371b94e7beba o )  ) ) ( type_aab7c544_344c_410a_97fc_5045e817bfc8_Class12 ( obj_773cd7a3_b089_46fc_b8f1_371b94e7beba o )  ) ) ( type_aab7c544_344c_410a_97fc_5045e817bfc8_Class33 ( obj_773cd7a3_b089_46fc_b8f1_371b94e7beba o )  ) ) ( type_aab7c544_344c_410a_97fc_5045e817bfc8_Class22 ( obj_773cd7a3_b089_46fc_b8f1_371b94e7beba o )  ) ) ( type_aab7c544_344c_410a_97fc_5045e817bfc8_Class39 ( obj_773cd7a3_b089_46fc_b8f1_371b94e7beba o )  ) )):named c8))
(assert (! (exists ((o Int)) ( type_aab7c544_344c_410a_97fc_5045e817bfc8_Class17 ( obj_773cd7a3_b089_46fc_b8f1_371b94e7beba o )  ) ):named c9))
(assert (! (exists ((o Int)) (and (and (and ( type_aab7c544_344c_410a_97fc_5045e817bfc8_Class18 ( obj_773cd7a3_b089_46fc_b8f1_371b94e7beba o )  )  ( type_aab7c544_344c_410a_97fc_5045e817bfc8_Class25 ( obj_773cd7a3_b089_46fc_b8f1_371b94e7beba o )  ) ) ( type_aab7c544_344c_410a_97fc_5045e817bfc8_Class24 ( obj_773cd7a3_b089_46fc_b8f1_371b94e7beba o )  ) ) ( type_aab7c544_344c_410a_97fc_5045e817bfc8_Class39 ( obj_773cd7a3_b089_46fc_b8f1_371b94e7beba o )  ) )):named c10))
(assert (! (exists ((o Int)) (and (and (and (and (and (and (and (and (and ( type_aab7c544_344c_410a_97fc_5045e817bfc8_Class19 ( obj_773cd7a3_b089_46fc_b8f1_371b94e7beba o )  )  ( type_aab7c544_344c_410a_97fc_5045e817bfc8_Class45 ( obj_773cd7a3_b089_46fc_b8f1_371b94e7beba o )  ) ) ( type_aab7c544_344c_410a_97fc_5045e817bfc8_Class12 ( obj_773cd7a3_b089_46fc_b8f1_371b94e7beba o )  ) ) ( type_aab7c544_344c_410a_97fc_5045e817bfc8_Class55 ( obj_773cd7a3_b089_46fc_b8f1_371b94e7beba o )  ) ) ( type_aab7c544_344c_410a_97fc_5045e817bfc8_Class33 ( obj_773cd7a3_b089_46fc_b8f1_371b94e7beba o )  ) ) ( type_aab7c544_344c_410a_97fc_5045e817bfc8_Class22 ( obj_773cd7a3_b089_46fc_b8f1_371b94e7beba o )  ) ) ( type_aab7c544_344c_410a_97fc_5045e817bfc8_Class29 ( obj_773cd7a3_b089_46fc_b8f1_371b94e7beba o )  ) ) ( type_aab7c544_344c_410a_97fc_5045e817bfc8_Class39 ( obj_773cd7a3_b089_46fc_b8f1_371b94e7beba o )  ) ) ( type_aab7c544_344c_410a_97fc_5045e817bfc8_Class50 ( obj_773cd7a3_b089_46fc_b8f1_371b94e7beba o )  ) ) ( type_aab7c544_344c_410a_97fc_5045e817bfc8_Class41 ( obj_773cd7a3_b089_46fc_b8f1_371b94e7beba o )  ) )):named c11))
(assert (! (exists ((o Int)) ( type_aab7c544_344c_410a_97fc_5045e817bfc8_Class2 ( obj_773cd7a3_b089_46fc_b8f1_371b94e7beba o )  ) ):named c12))
(assert (! (exists ((o Int)) ( type_aab7c544_344c_410a_97fc_5045e817bfc8_Class20 ( obj_773cd7a3_b089_46fc_b8f1_371b94e7beba o )  ) ):named c13))
(assert (! (exists ((o Int)) (and (and (and (and (and (and (and (and (and ( type_aab7c544_344c_410a_97fc_5045e817bfc8_Class21 ( obj_773cd7a3_b089_46fc_b8f1_371b94e7beba o )  )  ( type_aab7c544_344c_410a_97fc_5045e817bfc8_Class45 ( obj_773cd7a3_b089_46fc_b8f1_371b94e7beba o )  ) ) ( type_aab7c544_344c_410a_97fc_5045e817bfc8_Class12 ( obj_773cd7a3_b089_46fc_b8f1_371b94e7beba o )  ) ) ( type_aab7c544_344c_410a_97fc_5045e817bfc8_Class33 ( obj_773cd7a3_b089_46fc_b8f1_371b94e7beba o )  ) ) ( type_aab7c544_344c_410a_97fc_5045e817bfc8_Class22 ( obj_773cd7a3_b089_46fc_b8f1_371b94e7beba o )  ) ) ( type_aab7c544_344c_410a_97fc_5045e817bfc8_Class16 ( obj_773cd7a3_b089_46fc_b8f1_371b94e7beba o )  ) ) ( type_aab7c544_344c_410a_97fc_5045e817bfc8_Class29 ( obj_773cd7a3_b089_46fc_b8f1_371b94e7beba o )  ) ) ( type_aab7c544_344c_410a_97fc_5045e817bfc8_Class39 ( obj_773cd7a3_b089_46fc_b8f1_371b94e7beba o )  ) ) ( type_aab7c544_344c_410a_97fc_5045e817bfc8_Class41 ( obj_773cd7a3_b089_46fc_b8f1_371b94e7beba o )  ) ) ( type_aab7c544_344c_410a_97fc_5045e817bfc8_Class51 ( obj_773cd7a3_b089_46fc_b8f1_371b94e7beba o )  ) )):named c14))
(assert (! (exists ((o Int)) (and ( type_aab7c544_344c_410a_97fc_5045e817bfc8_Class22 ( obj_773cd7a3_b089_46fc_b8f1_371b94e7beba o )  )  ( type_aab7c544_344c_410a_97fc_5045e817bfc8_Class39 ( obj_773cd7a3_b089_46fc_b8f1_371b94e7beba o )  ) )):named c15))
(assert (! (exists ((o Int)) (and (and (and (and ( type_aab7c544_344c_410a_97fc_5045e817bfc8_Class23 ( obj_773cd7a3_b089_46fc_b8f1_371b94e7beba o )  )  ( type_aab7c544_344c_410a_97fc_5045e817bfc8_Class25 ( obj_773cd7a3_b089_46fc_b8f1_371b94e7beba o )  ) ) ( type_aab7c544_344c_410a_97fc_5045e817bfc8_Class24 ( obj_773cd7a3_b089_46fc_b8f1_371b94e7beba o )  ) ) ( type_aab7c544_344c_410a_97fc_5045e817bfc8_Class39 ( obj_773cd7a3_b089_46fc_b8f1_371b94e7beba o )  ) ) ( type_aab7c544_344c_410a_97fc_5045e817bfc8_Class5 ( obj_773cd7a3_b089_46fc_b8f1_371b94e7beba o )  ) )):named c16))
(assert (! (exists ((o Int)) (and (and ( type_aab7c544_344c_410a_97fc_5045e817bfc8_Class24 ( obj_773cd7a3_b089_46fc_b8f1_371b94e7beba o )  )  ( type_aab7c544_344c_410a_97fc_5045e817bfc8_Class25 ( obj_773cd7a3_b089_46fc_b8f1_371b94e7beba o )  ) ) ( type_aab7c544_344c_410a_97fc_5045e817bfc8_Class39 ( obj_773cd7a3_b089_46fc_b8f1_371b94e7beba o )  ) )):named c17))
(assert (! (exists ((o Int)) (and ( type_aab7c544_344c_410a_97fc_5045e817bfc8_Class25 ( obj_773cd7a3_b089_46fc_b8f1_371b94e7beba o )  )  ( type_aab7c544_344c_410a_97fc_5045e817bfc8_Class39 ( obj_773cd7a3_b089_46fc_b8f1_371b94e7beba o )  ) )):named c18))
(assert (! (exists ((o Int)) ( type_aab7c544_344c_410a_97fc_5045e817bfc8_Class26 ( obj_773cd7a3_b089_46fc_b8f1_371b94e7beba o )  ) ):named c19))
(assert (! (exists ((o Int)) ( type_aab7c544_344c_410a_97fc_5045e817bfc8_Class27 ( obj_773cd7a3_b089_46fc_b8f1_371b94e7beba o )  ) ):named c20))
(assert (! (exists ((o Int)) (and (and (and (and (and (and (and ( type_aab7c544_344c_410a_97fc_5045e817bfc8_Class28 ( obj_773cd7a3_b089_46fc_b8f1_371b94e7beba o )  )  ( type_aab7c544_344c_410a_97fc_5045e817bfc8_Class45 ( obj_773cd7a3_b089_46fc_b8f1_371b94e7beba o )  ) ) ( type_aab7c544_344c_410a_97fc_5045e817bfc8_Class12 ( obj_773cd7a3_b089_46fc_b8f1_371b94e7beba o )  ) ) ( type_aab7c544_344c_410a_97fc_5045e817bfc8_Class33 ( obj_773cd7a3_b089_46fc_b8f1_371b94e7beba o )  ) ) ( type_aab7c544_344c_410a_97fc_5045e817bfc8_Class22 ( obj_773cd7a3_b089_46fc_b8f1_371b94e7beba o )  ) ) ( type_aab7c544_344c_410a_97fc_5045e817bfc8_Class29 ( obj_773cd7a3_b089_46fc_b8f1_371b94e7beba o )  ) ) ( type_aab7c544_344c_410a_97fc_5045e817bfc8_Class39 ( obj_773cd7a3_b089_46fc_b8f1_371b94e7beba o )  ) ) ( type_aab7c544_344c_410a_97fc_5045e817bfc8_Class41 ( obj_773cd7a3_b089_46fc_b8f1_371b94e7beba o )  ) )):named c21))
(assert (! (exists ((o Int)) (and (and (and (and (and (and ( type_aab7c544_344c_410a_97fc_5045e817bfc8_Class29 ( obj_773cd7a3_b089_46fc_b8f1_371b94e7beba o )  )  ( type_aab7c544_344c_410a_97fc_5045e817bfc8_Class45 ( obj_773cd7a3_b089_46fc_b8f1_371b94e7beba o )  ) ) ( type_aab7c544_344c_410a_97fc_5045e817bfc8_Class12 ( obj_773cd7a3_b089_46fc_b8f1_371b94e7beba o )  ) ) ( type_aab7c544_344c_410a_97fc_5045e817bfc8_Class33 ( obj_773cd7a3_b089_46fc_b8f1_371b94e7beba o )  ) ) ( type_aab7c544_344c_410a_97fc_5045e817bfc8_Class22 ( obj_773cd7a3_b089_46fc_b8f1_371b94e7beba o )  ) ) ( type_aab7c544_344c_410a_97fc_5045e817bfc8_Class39 ( obj_773cd7a3_b089_46fc_b8f1_371b94e7beba o )  ) ) ( type_aab7c544_344c_410a_97fc_5045e817bfc8_Class41 ( obj_773cd7a3_b089_46fc_b8f1_371b94e7beba o )  ) )):named c22))
(assert (! (exists ((o Int)) (and (and (and ( type_aab7c544_344c_410a_97fc_5045e817bfc8_Class3 ( obj_773cd7a3_b089_46fc_b8f1_371b94e7beba o )  )  ( type_aab7c544_344c_410a_97fc_5045e817bfc8_Class25 ( obj_773cd7a3_b089_46fc_b8f1_371b94e7beba o )  ) ) ( type_aab7c544_344c_410a_97fc_5045e817bfc8_Class24 ( obj_773cd7a3_b089_46fc_b8f1_371b94e7beba o )  ) ) ( type_aab7c544_344c_410a_97fc_5045e817bfc8_Class39 ( obj_773cd7a3_b089_46fc_b8f1_371b94e7beba o )  ) )):named c23))
(assert (! (exists ((o Int)) (and ( type_aab7c544_344c_410a_97fc_5045e817bfc8_Class30 ( obj_773cd7a3_b089_46fc_b8f1_371b94e7beba o )  )  ( type_aab7c544_344c_410a_97fc_5045e817bfc8_Class39 ( obj_773cd7a3_b089_46fc_b8f1_371b94e7beba o )  ) )):named c24))
(assert (! (exists ((o Int)) (and (and (and (and (and ( type_aab7c544_344c_410a_97fc_5045e817bfc8_Class31 ( obj_773cd7a3_b089_46fc_b8f1_371b94e7beba o )  )  ( type_aab7c544_344c_410a_97fc_5045e817bfc8_Class45 ( obj_773cd7a3_b089_46fc_b8f1_371b94e7beba o )  ) ) ( type_aab7c544_344c_410a_97fc_5045e817bfc8_Class12 ( obj_773cd7a3_b089_46fc_b8f1_371b94e7beba o )  ) ) ( type_aab7c544_344c_410a_97fc_5045e817bfc8_Class33 ( obj_773cd7a3_b089_46fc_b8f1_371b94e7beba o )  ) ) ( type_aab7c544_344c_410a_97fc_5045e817bfc8_Class22 ( obj_773cd7a3_b089_46fc_b8f1_371b94e7beba o )  ) ) ( type_aab7c544_344c_410a_97fc_5045e817bfc8_Class39 ( obj_773cd7a3_b089_46fc_b8f1_371b94e7beba o )  ) )):named c25))
(assert (! (exists ((o Int)) ( type_aab7c544_344c_410a_97fc_5045e817bfc8_Class32 ( obj_773cd7a3_b089_46fc_b8f1_371b94e7beba o )  ) ):named c26))
(assert (! (exists ((o Int)) (and (and ( type_aab7c544_344c_410a_97fc_5045e817bfc8_Class33 ( obj_773cd7a3_b089_46fc_b8f1_371b94e7beba o )  )  ( type_aab7c544_344c_410a_97fc_5045e817bfc8_Class22 ( obj_773cd7a3_b089_46fc_b8f1_371b94e7beba o )  ) ) ( type_aab7c544_344c_410a_97fc_5045e817bfc8_Class39 ( obj_773cd7a3_b089_46fc_b8f1_371b94e7beba o )  ) )):named c27))
(assert (! (exists ((o Int)) (and (and (and ( type_aab7c544_344c_410a_97fc_5045e817bfc8_Class34 ( obj_773cd7a3_b089_46fc_b8f1_371b94e7beba o )  )  ( type_aab7c544_344c_410a_97fc_5045e817bfc8_Class25 ( obj_773cd7a3_b089_46fc_b8f1_371b94e7beba o )  ) ) ( type_aab7c544_344c_410a_97fc_5045e817bfc8_Class24 ( obj_773cd7a3_b089_46fc_b8f1_371b94e7beba o )  ) ) ( type_aab7c544_344c_410a_97fc_5045e817bfc8_Class39 ( obj_773cd7a3_b089_46fc_b8f1_371b94e7beba o )  ) )):named c28))
(assert (! (exists ((o Int)) (and (and ( type_aab7c544_344c_410a_97fc_5045e817bfc8_Class35 ( obj_773cd7a3_b089_46fc_b8f1_371b94e7beba o )  )  ( type_aab7c544_344c_410a_97fc_5045e817bfc8_Class39 ( obj_773cd7a3_b089_46fc_b8f1_371b94e7beba o )  ) ) ( type_aab7c544_344c_410a_97fc_5045e817bfc8_Class30 ( obj_773cd7a3_b089_46fc_b8f1_371b94e7beba o )  ) )):named c29))
(assert (! (exists ((o Int)) ( type_aab7c544_344c_410a_97fc_5045e817bfc8_Class36 ( obj_773cd7a3_b089_46fc_b8f1_371b94e7beba o )  ) ):named c30))
(assert (! (exists ((o Int)) ( type_aab7c544_344c_410a_97fc_5045e817bfc8_Class37 ( obj_773cd7a3_b089_46fc_b8f1_371b94e7beba o )  ) ):named c31))
(assert (! (exists ((o Int)) ( type_aab7c544_344c_410a_97fc_5045e817bfc8_Class38 ( obj_773cd7a3_b089_46fc_b8f1_371b94e7beba o )  ) ):named c32))
(assert (! (exists ((o Int)) ( type_aab7c544_344c_410a_97fc_5045e817bfc8_Class39 ( obj_773cd7a3_b089_46fc_b8f1_371b94e7beba o )  ) ):named c33))
(assert (! (exists ((o Int)) ( type_aab7c544_344c_410a_97fc_5045e817bfc8_Class4 ( obj_773cd7a3_b089_46fc_b8f1_371b94e7beba o )  ) ):named c34))
(assert (! (exists ((o Int)) (and (and (and (and (and (and (and (and (and ( type_aab7c544_344c_410a_97fc_5045e817bfc8_Class40 ( obj_773cd7a3_b089_46fc_b8f1_371b94e7beba o )  )  ( type_aab7c544_344c_410a_97fc_5045e817bfc8_Class45 ( obj_773cd7a3_b089_46fc_b8f1_371b94e7beba o )  ) ) ( type_aab7c544_344c_410a_97fc_5045e817bfc8_Class12 ( obj_773cd7a3_b089_46fc_b8f1_371b94e7beba o )  ) ) ( type_aab7c544_344c_410a_97fc_5045e817bfc8_Class55 ( obj_773cd7a3_b089_46fc_b8f1_371b94e7beba o )  ) ) ( type_aab7c544_344c_410a_97fc_5045e817bfc8_Class33 ( obj_773cd7a3_b089_46fc_b8f1_371b94e7beba o )  ) ) ( type_aab7c544_344c_410a_97fc_5045e817bfc8_Class22 ( obj_773cd7a3_b089_46fc_b8f1_371b94e7beba o )  ) ) ( type_aab7c544_344c_410a_97fc_5045e817bfc8_Class29 ( obj_773cd7a3_b089_46fc_b8f1_371b94e7beba o )  ) ) ( type_aab7c544_344c_410a_97fc_5045e817bfc8_Class39 ( obj_773cd7a3_b089_46fc_b8f1_371b94e7beba o )  ) ) ( type_aab7c544_344c_410a_97fc_5045e817bfc8_Class50 ( obj_773cd7a3_b089_46fc_b8f1_371b94e7beba o )  ) ) ( type_aab7c544_344c_410a_97fc_5045e817bfc8_Class41 ( obj_773cd7a3_b089_46fc_b8f1_371b94e7beba o )  ) )):named c35))
(assert (! (exists ((o Int)) (and (and (and (and (and ( type_aab7c544_344c_410a_97fc_5045e817bfc8_Class41 ( obj_773cd7a3_b089_46fc_b8f1_371b94e7beba o )  )  ( type_aab7c544_344c_410a_97fc_5045e817bfc8_Class45 ( obj_773cd7a3_b089_46fc_b8f1_371b94e7beba o )  ) ) ( type_aab7c544_344c_410a_97fc_5045e817bfc8_Class12 ( obj_773cd7a3_b089_46fc_b8f1_371b94e7beba o )  ) ) ( type_aab7c544_344c_410a_97fc_5045e817bfc8_Class33 ( obj_773cd7a3_b089_46fc_b8f1_371b94e7beba o )  ) ) ( type_aab7c544_344c_410a_97fc_5045e817bfc8_Class22 ( obj_773cd7a3_b089_46fc_b8f1_371b94e7beba o )  ) ) ( type_aab7c544_344c_410a_97fc_5045e817bfc8_Class39 ( obj_773cd7a3_b089_46fc_b8f1_371b94e7beba o )  ) )):named c36))
(assert (! (exists ((o Int)) (and ( type_aab7c544_344c_410a_97fc_5045e817bfc8_Class42 ( obj_773cd7a3_b089_46fc_b8f1_371b94e7beba o )  )  ( type_aab7c544_344c_410a_97fc_5045e817bfc8_Class39 ( obj_773cd7a3_b089_46fc_b8f1_371b94e7beba o )  ) )):named c37))
(assert (! (exists ((o Int)) ( type_aab7c544_344c_410a_97fc_5045e817bfc8_Class43 ( obj_773cd7a3_b089_46fc_b8f1_371b94e7beba o )  ) ):named c38))
(assert (! (exists ((o Int)) (and (and (and (and (and (and (and ( type_aab7c544_344c_410a_97fc_5045e817bfc8_Class44 ( obj_773cd7a3_b089_46fc_b8f1_371b94e7beba o )  )  ( type_aab7c544_344c_410a_97fc_5045e817bfc8_Class45 ( obj_773cd7a3_b089_46fc_b8f1_371b94e7beba o )  ) ) ( type_aab7c544_344c_410a_97fc_5045e817bfc8_Class12 ( obj_773cd7a3_b089_46fc_b8f1_371b94e7beba o )  ) ) ( type_aab7c544_344c_410a_97fc_5045e817bfc8_Class33 ( obj_773cd7a3_b089_46fc_b8f1_371b94e7beba o )  ) ) ( type_aab7c544_344c_410a_97fc_5045e817bfc8_Class22 ( obj_773cd7a3_b089_46fc_b8f1_371b94e7beba o )  ) ) ( type_aab7c544_344c_410a_97fc_5045e817bfc8_Class29 ( obj_773cd7a3_b089_46fc_b8f1_371b94e7beba o )  ) ) ( type_aab7c544_344c_410a_97fc_5045e817bfc8_Class39 ( obj_773cd7a3_b089_46fc_b8f1_371b94e7beba o )  ) ) ( type_aab7c544_344c_410a_97fc_5045e817bfc8_Class41 ( obj_773cd7a3_b089_46fc_b8f1_371b94e7beba o )  ) )):named c39))
(assert (! (exists ((o Int)) (and (and (and (and ( type_aab7c544_344c_410a_97fc_5045e817bfc8_Class45 ( obj_773cd7a3_b089_46fc_b8f1_371b94e7beba o )  )  ( type_aab7c544_344c_410a_97fc_5045e817bfc8_Class12 ( obj_773cd7a3_b089_46fc_b8f1_371b94e7beba o )  ) ) ( type_aab7c544_344c_410a_97fc_5045e817bfc8_Class33 ( obj_773cd7a3_b089_46fc_b8f1_371b94e7beba o )  ) ) ( type_aab7c544_344c_410a_97fc_5045e817bfc8_Class22 ( obj_773cd7a3_b089_46fc_b8f1_371b94e7beba o )  ) ) ( type_aab7c544_344c_410a_97fc_5045e817bfc8_Class39 ( obj_773cd7a3_b089_46fc_b8f1_371b94e7beba o )  ) )):named c40))
(assert (! (exists ((o Int)) (and (and ( type_aab7c544_344c_410a_97fc_5045e817bfc8_Class46 ( obj_773cd7a3_b089_46fc_b8f1_371b94e7beba o )  )  ( type_aab7c544_344c_410a_97fc_5045e817bfc8_Class39 ( obj_773cd7a3_b089_46fc_b8f1_371b94e7beba o )  ) ) ( type_aab7c544_344c_410a_97fc_5045e817bfc8_Class5 ( obj_773cd7a3_b089_46fc_b8f1_371b94e7beba o )  ) )):named c41))
(assert (! (exists ((o Int)) ( type_aab7c544_344c_410a_97fc_5045e817bfc8_Class47 ( obj_773cd7a3_b089_46fc_b8f1_371b94e7beba o )  ) ):named c42))
(assert (! (exists ((o Int)) (and (and (and (and (and (and (and (and (and ( type_aab7c544_344c_410a_97fc_5045e817bfc8_Class48 ( obj_773cd7a3_b089_46fc_b8f1_371b94e7beba o )  )  ( type_aab7c544_344c_410a_97fc_5045e817bfc8_Class45 ( obj_773cd7a3_b089_46fc_b8f1_371b94e7beba o )  ) ) ( type_aab7c544_344c_410a_97fc_5045e817bfc8_Class12 ( obj_773cd7a3_b089_46fc_b8f1_371b94e7beba o )  ) ) ( type_aab7c544_344c_410a_97fc_5045e817bfc8_Class55 ( obj_773cd7a3_b089_46fc_b8f1_371b94e7beba o )  ) ) ( type_aab7c544_344c_410a_97fc_5045e817bfc8_Class33 ( obj_773cd7a3_b089_46fc_b8f1_371b94e7beba o )  ) ) ( type_aab7c544_344c_410a_97fc_5045e817bfc8_Class22 ( obj_773cd7a3_b089_46fc_b8f1_371b94e7beba o )  ) ) ( type_aab7c544_344c_410a_97fc_5045e817bfc8_Class29 ( obj_773cd7a3_b089_46fc_b8f1_371b94e7beba o )  ) ) ( type_aab7c544_344c_410a_97fc_5045e817bfc8_Class39 ( obj_773cd7a3_b089_46fc_b8f1_371b94e7beba o )  ) ) ( type_aab7c544_344c_410a_97fc_5045e817bfc8_Class50 ( obj_773cd7a3_b089_46fc_b8f1_371b94e7beba o )  ) ) ( type_aab7c544_344c_410a_97fc_5045e817bfc8_Class41 ( obj_773cd7a3_b089_46fc_b8f1_371b94e7beba o )  ) )):named c43))
(assert (! (exists ((o Int)) (and (and (and (and (and (and (and (and (and ( type_aab7c544_344c_410a_97fc_5045e817bfc8_Class49 ( obj_773cd7a3_b089_46fc_b8f1_371b94e7beba o )  )  ( type_aab7c544_344c_410a_97fc_5045e817bfc8_Class45 ( obj_773cd7a3_b089_46fc_b8f1_371b94e7beba o )  ) ) ( type_aab7c544_344c_410a_97fc_5045e817bfc8_Class12 ( obj_773cd7a3_b089_46fc_b8f1_371b94e7beba o )  ) ) ( type_aab7c544_344c_410a_97fc_5045e817bfc8_Class55 ( obj_773cd7a3_b089_46fc_b8f1_371b94e7beba o )  ) ) ( type_aab7c544_344c_410a_97fc_5045e817bfc8_Class33 ( obj_773cd7a3_b089_46fc_b8f1_371b94e7beba o )  ) ) ( type_aab7c544_344c_410a_97fc_5045e817bfc8_Class22 ( obj_773cd7a3_b089_46fc_b8f1_371b94e7beba o )  ) ) ( type_aab7c544_344c_410a_97fc_5045e817bfc8_Class29 ( obj_773cd7a3_b089_46fc_b8f1_371b94e7beba o )  ) ) ( type_aab7c544_344c_410a_97fc_5045e817bfc8_Class39 ( obj_773cd7a3_b089_46fc_b8f1_371b94e7beba o )  ) ) ( type_aab7c544_344c_410a_97fc_5045e817bfc8_Class50 ( obj_773cd7a3_b089_46fc_b8f1_371b94e7beba o )  ) ) ( type_aab7c544_344c_410a_97fc_5045e817bfc8_Class41 ( obj_773cd7a3_b089_46fc_b8f1_371b94e7beba o )  ) )):named c44))
(assert (! (exists ((o Int)) (and ( type_aab7c544_344c_410a_97fc_5045e817bfc8_Class5 ( obj_773cd7a3_b089_46fc_b8f1_371b94e7beba o )  )  ( type_aab7c544_344c_410a_97fc_5045e817bfc8_Class39 ( obj_773cd7a3_b089_46fc_b8f1_371b94e7beba o )  ) )):named c45))
(assert (! (exists ((o Int)) (and (and (and (and (and (and (and (and ( type_aab7c544_344c_410a_97fc_5045e817bfc8_Class50 ( obj_773cd7a3_b089_46fc_b8f1_371b94e7beba o )  )  ( type_aab7c544_344c_410a_97fc_5045e817bfc8_Class45 ( obj_773cd7a3_b089_46fc_b8f1_371b94e7beba o )  ) ) ( type_aab7c544_344c_410a_97fc_5045e817bfc8_Class12 ( obj_773cd7a3_b089_46fc_b8f1_371b94e7beba o )  ) ) ( type_aab7c544_344c_410a_97fc_5045e817bfc8_Class55 ( obj_773cd7a3_b089_46fc_b8f1_371b94e7beba o )  ) ) ( type_aab7c544_344c_410a_97fc_5045e817bfc8_Class33 ( obj_773cd7a3_b089_46fc_b8f1_371b94e7beba o )  ) ) ( type_aab7c544_344c_410a_97fc_5045e817bfc8_Class22 ( obj_773cd7a3_b089_46fc_b8f1_371b94e7beba o )  ) ) ( type_aab7c544_344c_410a_97fc_5045e817bfc8_Class29 ( obj_773cd7a3_b089_46fc_b8f1_371b94e7beba o )  ) ) ( type_aab7c544_344c_410a_97fc_5045e817bfc8_Class39 ( obj_773cd7a3_b089_46fc_b8f1_371b94e7beba o )  ) ) ( type_aab7c544_344c_410a_97fc_5045e817bfc8_Class41 ( obj_773cd7a3_b089_46fc_b8f1_371b94e7beba o )  ) )):named c46))
(assert (! (exists ((o Int)) (and (and (and (and (and (and ( type_aab7c544_344c_410a_97fc_5045e817bfc8_Class51 ( obj_773cd7a3_b089_46fc_b8f1_371b94e7beba o )  )  ( type_aab7c544_344c_410a_97fc_5045e817bfc8_Class45 ( obj_773cd7a3_b089_46fc_b8f1_371b94e7beba o )  ) ) ( type_aab7c544_344c_410a_97fc_5045e817bfc8_Class12 ( obj_773cd7a3_b089_46fc_b8f1_371b94e7beba o )  ) ) ( type_aab7c544_344c_410a_97fc_5045e817bfc8_Class33 ( obj_773cd7a3_b089_46fc_b8f1_371b94e7beba o )  ) ) ( type_aab7c544_344c_410a_97fc_5045e817bfc8_Class22 ( obj_773cd7a3_b089_46fc_b8f1_371b94e7beba o )  ) ) ( type_aab7c544_344c_410a_97fc_5045e817bfc8_Class16 ( obj_773cd7a3_b089_46fc_b8f1_371b94e7beba o )  ) ) ( type_aab7c544_344c_410a_97fc_5045e817bfc8_Class39 ( obj_773cd7a3_b089_46fc_b8f1_371b94e7beba o )  ) )):named c47))
(assert (! (exists ((o Int)) (and (and (and (and (and ( type_aab7c544_344c_410a_97fc_5045e817bfc8_Class52 ( obj_773cd7a3_b089_46fc_b8f1_371b94e7beba o )  )  ( type_aab7c544_344c_410a_97fc_5045e817bfc8_Class45 ( obj_773cd7a3_b089_46fc_b8f1_371b94e7beba o )  ) ) ( type_aab7c544_344c_410a_97fc_5045e817bfc8_Class12 ( obj_773cd7a3_b089_46fc_b8f1_371b94e7beba o )  ) ) ( type_aab7c544_344c_410a_97fc_5045e817bfc8_Class33 ( obj_773cd7a3_b089_46fc_b8f1_371b94e7beba o )  ) ) ( type_aab7c544_344c_410a_97fc_5045e817bfc8_Class22 ( obj_773cd7a3_b089_46fc_b8f1_371b94e7beba o )  ) ) ( type_aab7c544_344c_410a_97fc_5045e817bfc8_Class39 ( obj_773cd7a3_b089_46fc_b8f1_371b94e7beba o )  ) )):named c48))
(assert (! (exists ((o Int)) ( type_aab7c544_344c_410a_97fc_5045e817bfc8_Class53 ( obj_773cd7a3_b089_46fc_b8f1_371b94e7beba o )  ) ):named c49))
(assert (! (exists ((o Int)) ( type_aab7c544_344c_410a_97fc_5045e817bfc8_Class54 ( obj_773cd7a3_b089_46fc_b8f1_371b94e7beba o )  ) ):named c50))
(assert (! (exists ((o Int)) (and (and (and (and (and (and (and ( type_aab7c544_344c_410a_97fc_5045e817bfc8_Class55 ( obj_773cd7a3_b089_46fc_b8f1_371b94e7beba o )  )  ( type_aab7c544_344c_410a_97fc_5045e817bfc8_Class45 ( obj_773cd7a3_b089_46fc_b8f1_371b94e7beba o )  ) ) ( type_aab7c544_344c_410a_97fc_5045e817bfc8_Class12 ( obj_773cd7a3_b089_46fc_b8f1_371b94e7beba o )  ) ) ( type_aab7c544_344c_410a_97fc_5045e817bfc8_Class33 ( obj_773cd7a3_b089_46fc_b8f1_371b94e7beba o )  ) ) ( type_aab7c544_344c_410a_97fc_5045e817bfc8_Class22 ( obj_773cd7a3_b089_46fc_b8f1_371b94e7beba o )  ) ) ( type_aab7c544_344c_410a_97fc_5045e817bfc8_Class29 ( obj_773cd7a3_b089_46fc_b8f1_371b94e7beba o )  ) ) ( type_aab7c544_344c_410a_97fc_5045e817bfc8_Class39 ( obj_773cd7a3_b089_46fc_b8f1_371b94e7beba o )  ) ) ( type_aab7c544_344c_410a_97fc_5045e817bfc8_Class41 ( obj_773cd7a3_b089_46fc_b8f1_371b94e7beba o )  ) )):named c51))
(assert (! (exists ((o Int)) ( type_aab7c544_344c_410a_97fc_5045e817bfc8_Class6 ( obj_773cd7a3_b089_46fc_b8f1_371b94e7beba o )  ) ):named c52))
(assert (! (exists ((o Int)) (and (and (and (and (and (and (and (and (and ( type_aab7c544_344c_410a_97fc_5045e817bfc8_Class7 ( obj_773cd7a3_b089_46fc_b8f1_371b94e7beba o )  )  ( type_aab7c544_344c_410a_97fc_5045e817bfc8_Class45 ( obj_773cd7a3_b089_46fc_b8f1_371b94e7beba o )  ) ) ( type_aab7c544_344c_410a_97fc_5045e817bfc8_Class12 ( obj_773cd7a3_b089_46fc_b8f1_371b94e7beba o )  ) ) ( type_aab7c544_344c_410a_97fc_5045e817bfc8_Class55 ( obj_773cd7a3_b089_46fc_b8f1_371b94e7beba o )  ) ) ( type_aab7c544_344c_410a_97fc_5045e817bfc8_Class33 ( obj_773cd7a3_b089_46fc_b8f1_371b94e7beba o )  ) ) ( type_aab7c544_344c_410a_97fc_5045e817bfc8_Class22 ( obj_773cd7a3_b089_46fc_b8f1_371b94e7beba o )  ) ) ( type_aab7c544_344c_410a_97fc_5045e817bfc8_Class29 ( obj_773cd7a3_b089_46fc_b8f1_371b94e7beba o )  ) ) ( type_aab7c544_344c_410a_97fc_5045e817bfc8_Class39 ( obj_773cd7a3_b089_46fc_b8f1_371b94e7beba o )  ) ) ( type_aab7c544_344c_410a_97fc_5045e817bfc8_Class50 ( obj_773cd7a3_b089_46fc_b8f1_371b94e7beba o )  ) ) ( type_aab7c544_344c_410a_97fc_5045e817bfc8_Class41 ( obj_773cd7a3_b089_46fc_b8f1_371b94e7beba o )  ) )):named c53))
(assert (! (exists ((o Int)) (and ( type_aab7c544_344c_410a_97fc_5045e817bfc8_Class8 ( obj_773cd7a3_b089_46fc_b8f1_371b94e7beba o )  )  ( type_aab7c544_344c_410a_97fc_5045e817bfc8_Class39 ( obj_773cd7a3_b089_46fc_b8f1_371b94e7beba o )  ) )):named c54))
(assert (! (exists ((o Int)) ( type_aab7c544_344c_410a_97fc_5045e817bfc8_Class9 ( obj_773cd7a3_b089_46fc_b8f1_371b94e7beba o )  ) ):named c55))

 ;end of formula 